p cnf 154 376
a 4 2 16 14 12 73 37 35 33 31 29 103 110 116 124 132 141 1 11 24 48 28 53 0
d 62 16 1 0
d 39 73 24 0
d 72 73 11 0
d 49 103 28 0
d 109 110 48 0
d 117 110 53 0
d 3 2 0
d 5 4 0
d 6 4 0
d 7 4 0
d 8 2 4 0
d 9 1 2 4 0
d 10 1 2 4 0
d 13 12 0
d 15 14 0
d 17 16 0
d 18 16 2 4 0
d 19 14 16 2 4 0
d 20 12 14 16 2 4 0
d 21 11 12 14 16 2 4 0
d 22 11 12 14 16 2 4 0
d 23 1 2 4 11 12 14 16 0
d 25 24 12 14 16 2 4 0
d 26 24 12 14 16 2 4 0
d 27 1 2 4 11 12 14 16 24 0
d 30 29 0
d 32 31 0
d 34 33 0
d 36 35 0
d 38 37 0
d 40 37 73 24 0
d 41 35 37 73 24 0
d 42 33 35 37 73 24 0
d 43 31 33 35 37 73 24 0
d 44 29 31 33 35 37 73 24 0
d 45 28 29 31 33 35 37 73 24 0
d 46 28 29 31 33 35 37 73 24 0
d 47 1 2 4 11 12 14 16 24 28 29 31 33 35 37 73 0
d 50 48 103 28 0
d 51 48 103 28 0
d 52 1 2 4 11 12 14 16 24 28 29 31 33 35 37 73 48 103 0
d 54 53 103 28 0
d 55 53 103 28 0
d 56 1 2 4 11 12 14 16 24 28 29 31 33 35 37 73 48 103 53 0
d 57 4 0
d 58 4 0
d 59 2 4 0
d 60 2 4 0
d 61 4 2 0
d 63 16 2 4 0
d 64 16 1 2 4 0
d 65 4 2 16 1 0
d 66 14 16 2 4 0
d 67 14 16 2 4 0
d 68 4 2 16 1 14 0
d 69 12 14 16 2 4 0
d 70 12 14 16 2 4 0
d 71 4 2 16 1 14 12 0
d 74 73 12 14 16 2 4 0
d 75 73 11 12 14 16 2 4 0
d 76 4 2 16 1 14 12 73 11 0
d 77 37 73 24 0
d 78 73 0
d 79 73 12 14 16 2 4 0
d 80 37 73 12 14 16 2 4 0
d 81 37 73 24 12 14 16 2 4 0
d 82 4 2 16 1 14 12 73 11 37 24 0
d 83 35 37 73 24 0
d 84 37 73 12 14 16 2 4 0
d 85 35 37 73 12 14 16 2 4 0
d 86 35 37 73 24 12 14 16 2 4 0
d 87 4 2 16 1 14 12 73 11 37 24 35 0
d 88 33 35 37 73 24 0
d 89 35 37 73 12 14 16 2 4 0
d 90 33 35 37 73 12 14 16 2 4 0
d 91 33 35 37 73 24 12 14 16 2 4 0
d 92 4 2 16 1 14 12 73 11 37 24 35 33 0
d 93 31 33 35 37 73 24 0
d 94 33 35 37 73 12 14 16 2 4 0
d 95 31 33 35 37 73 12 14 16 2 4 0
d 96 31 33 35 37 73 24 12 14 16 2 4 0
d 97 4 2 16 1 14 12 73 11 37 24 35 33 31 0
d 98 29 31 33 35 37 73 24 0
d 99 31 33 35 37 73 12 14 16 2 4 0
d 100 29 31 33 35 37 73 12 14 16 2 4 0
d 101 29 31 33 35 37 73 24 12 14 16 2 4 0
d 102 4 2 16 1 14 12 73 11 37 24 35 33 31 29 0
d 104 103 29 31 33 35 37 73 24 0
d 105 29 31 33 35 37 73 12 14 16 2 4 0
d 106 103 29 31 33 35 37 73 12 14 16 2 4 0
d 107 103 29 31 33 35 37 73 24 12 14 16 2 4 0
d 108 4 2 16 1 14 12 73 11 37 24 35 33 31 29 103 0
d 111 103 0
d 112 103 29 31 33 35 37 73 12 14 16 2 4 0
d 113 110 103 29 31 33 35 37 73 12 14 16 2 4 0
d 114 110 48 103 29 31 33 35 37 73 12 14 16 2 4 0
d 115 4 2 16 1 14 12 73 11 37 24 35 33 31 29 103 110 48 0
d 118 116 110 53 0
d 119 110 0
d 120 110 103 29 31 33 35 37 73 12 14 16 2 4 0
d 121 116 110 103 29 31 33 35 37 73 12 14 16 2 4 0
d 122 116 110 53 103 29 31 33 35 37 73 12 14 16 2 4 0
d 123 4 2 16 1 14 12 73 11 37 24 35 33 31 29 103 110 48 116 53 0
d 125 116 0
d 126 116 110 53 0
d 127 124 116 110 53 0
d 128 116 110 103 29 31 33 35 37 73 12 14 16 2 4 0
d 129 124 116 110 103 29 31 33 35 37 73 12 14 16 2 4 0
d 130 124 116 110 53 103 29 31 33 35 37 73 12 14 16 2 4 0
d 131 4 2 16 1 14 12 73 11 37 24 35 33 31 29 103 110 48 116 53 124 0
d 133 124 116 110 53 0
d 134 124 116 110 53 0
d 135 132 124 116 110 53 0
d 136 124 0
d 137 124 116 110 103 29 31 33 35 37 73 12 14 16 2 4 0
d 138 132 124 116 110 103 29 31 33 35 37 73 12 14 16 2 4 0
d 139 132 124 116 110 53 103 29 31 33 35 37 73 12 14 16 2 4 0
d 140 4 2 16 1 14 12 73 11 37 24 35 33 31 29 103 110 48 116 53 124 132 0
d 142 132 0
d 143 132 124 116 110 53 0
d 144 141 132 124 116 110 53 0
d 145 132 124 116 110 103 29 31 33 35 37 73 12 14 16 2 4 0
d 146 141 132 124 116 110 103 29 31 33 35 37 73 12 14 16 2 4 0
d 147 141 132 124 116 110 53 103 29 31 33 35 37 73 12 14 16 2 4 0
d 148 4 2 16 1 14 12 73 11 37 24 35 33 31 29 103 110 48 116 53 124 132 141 0
d 149 141 0
d 150 141 132 124 116 110 53 0
d 151 141 132 124 116 110 103 29 31 33 35 37 73 12 14 16 2 4 0
d 152 141 132 124 116 110 53 103 29 31 33 35 37 73 12 14 16 2 4 0
d 153 4 2 16 1 14 12 73 11 37 24 35 33 31 29 103 110 48 116 53 124 132 141 0
d 154 1 2 4 11 12 14 16 24 28 29 31 33 35 37 73 48 103 53 110 116 124 132 141 0
3 2 0
-3 -2 0
5 4 0
-5 -4 0
6 -4 0
6 -5 0
-6 4 5 0
-7 5 0
-7 6 0
7 -5 -6 0
-8 3 0
-8 7 0
8 -3 -7 0
9 -1 -8 0
9 1 8 0
-9 -1 8 0
-9 1 -8 0
10 9 0
-10 -9 0
13 12 0
-13 -12 0
15 14 0
-15 -14 0
17 16 0
-17 -16 0
-18 17 0
-18 8 0
18 -17 -8 0
-19 15 0
-19 18 0
19 -15 -18 0
-20 13 0
-20 19 0
20 -13 -19 0
21 -11 -20 0
21 11 20 0
-21 -11 20 0
-21 11 -20 0
22 21 0
-22 -21 0
23 -10 0
23 -22 0
-23 10 22 0
25 -24 -20 0
25 24 20 0
-25 -24 20 0
-25 24 -20 0
26 25 0
-26 -25 0
27 -23 0
27 -26 0
-27 23 26 0
30 29 0
-30 -29 0
32 31 0
-32 -31 0
34 33 0
-34 -33 0
36 35 0
-36 -35 0
38 37 0
-38 -37 0
-40 38 0
-40 39 0
40 -38 -39 0
-41 36 0
-41 40 0
41 -36 -40 0
-42 34 0
-42 41 0
42 -34 -41 0
-43 32 0
-43 42 0
43 -32 -42 0
-44 30 0
-44 43 0
44 -30 -43 0
45 -28 -44 0
45 28 44 0
-45 -28 44 0
-45 28 -44 0
46 45 0
-46 -45 0
47 -27 0
47 -46 0
-47 27 46 0
50 -48 -49 0
50 48 49 0
-50 -48 49 0
-50 48 -49 0
51 50 0
-51 -50 0
52 -47 0
52 -51 0
-52 47 51 0
54 -53 -49 0
54 53 49 0
-54 -53 49 0
-54 53 -49 0
55 54 0
-55 -54 0
56 -52 0
56 -55 0
-56 52 55 0
-57 4 0
-57 6 0
57 -4 -6 0
58 -57 -57 0
58 57 57 0
-58 -57 57 0
-58 57 -57 0
-59 2 0
-59 7 0
59 -2 -7 0
60 -59 -59 0
60 59 59 0
-60 -59 59 0
-60 59 -59 0
-61 58 0
-61 60 0
61 -58 -60 0
-63 16 0
-63 8 0
63 -16 -8 0
64 -62 -63 0
64 62 63 0
-64 -62 63 0
-64 62 -63 0
-65 61 0
-65 64 0
65 -61 -64 0
-66 14 0
-66 18 0
66 -14 -18 0
67 -66 -66 0
67 66 66 0
-67 -66 66 0
-67 66 -66 0
-68 65 0
-68 67 0
68 -65 -67 0
-69 12 0
-69 19 0
69 -12 -19 0
70 -69 -69 0
70 69 69 0
-70 -69 69 0
-70 69 -69 0
-71 68 0
-71 70 0
71 -68 -70 0
-74 73 0
-74 20 0
74 -73 -20 0
75 -72 -74 0
75 72 74 0
-75 -72 74 0
-75 72 -74 0
-76 71 0
-76 75 0
76 -71 -75 0
-77 37 0
-77 39 0
77 -37 -39 0
78 73 0
-78 -73 0
-79 78 0
-79 20 0
79 -78 -20 0
-80 37 0
-80 79 0
80 -37 -79 0
81 -77 -80 0
81 77 80 0
-81 -77 80 0
-81 77 -80 0
-82 76 0
-82 81 0
82 -76 -81 0
-83 35 0
-83 40 0
83 -35 -40 0
-84 38 0
-84 79 0
84 -38 -79 0
-85 35 0
-85 84 0
85 -35 -84 0
86 -83 -85 0
86 83 85 0
-86 -83 85 0
-86 83 -85 0
-87 82 0
-87 86 0
87 -82 -86 0
-88 33 0
-88 41 0
88 -33 -41 0
-89 36 0
-89 84 0
89 -36 -84 0
-90 33 0
-90 89 0
90 -33 -89 0
91 -88 -90 0
91 88 90 0
-91 -88 90 0
-91 88 -90 0
-92 87 0
-92 91 0
92 -87 -91 0
-93 31 0
-93 42 0
93 -31 -42 0
-94 34 0
-94 89 0
94 -34 -89 0
-95 31 0
-95 94 0
95 -31 -94 0
96 -93 -95 0
96 93 95 0
-96 -93 95 0
-96 93 -95 0
-97 92 0
-97 96 0
97 -92 -96 0
-98 29 0
-98 43 0
98 -29 -43 0
-99 32 0
-99 94 0
99 -32 -94 0
-100 29 0
-100 99 0
100 -29 -99 0
101 -98 -100 0
101 98 100 0
-101 -98 100 0
-101 98 -100 0
-102 97 0
-102 101 0
102 -97 -101 0
-104 103 0
-104 44 0
104 -103 -44 0
-105 30 0
-105 99 0
105 -30 -99 0
-106 103 0
-106 105 0
106 -103 -105 0
107 -104 -106 0
107 104 106 0
-107 -104 106 0
-107 104 -106 0
-108 102 0
-108 107 0
108 -102 -107 0
111 103 0
-111 -103 0
-112 111 0
-112 105 0
112 -111 -105 0
-113 110 0
-113 112 0
113 -110 -112 0
114 -109 -113 0
114 109 113 0
-114 -109 113 0
-114 109 -113 0
-115 108 0
-115 114 0
115 -108 -114 0
-118 116 0
-118 117 0
118 -116 -117 0
119 110 0
-119 -110 0
-120 119 0
-120 112 0
120 -119 -112 0
-121 116 0
-121 120 0
121 -116 -120 0
122 -118 -121 0
122 118 121 0
-122 -118 121 0
-122 118 -121 0
-123 115 0
-123 122 0
123 -115 -122 0
125 116 0
-125 -116 0
-126 125 0
-126 117 0
126 -125 -117 0
-127 124 0
-127 126 0
127 -124 -126 0
-128 125 0
-128 120 0
128 -125 -120 0
-129 124 0
-129 128 0
129 -124 -128 0
130 -127 -129 0
130 127 129 0
-130 -127 129 0
-130 127 -129 0
-131 123 0
-131 130 0
131 -123 -130 0
133 -124 0
133 -126 0
-133 124 126 0
134 133 0
-134 -133 0
-135 132 0
-135 134 0
135 -132 -134 0
136 124 0
-136 -124 0
-137 136 0
-137 128 0
137 -136 -128 0
-138 132 0
-138 137 0
138 -132 -137 0
139 -135 -138 0
139 135 138 0
-139 -135 138 0
-139 135 -138 0
-140 131 0
-140 139 0
140 -131 -139 0
142 132 0
-142 -132 0
-143 142 0
-143 134 0
143 -142 -134 0
-144 141 0
-144 143 0
144 -141 -143 0
-145 142 0
-145 137 0
145 -142 -137 0
-146 141 0
-146 145 0
146 -141 -145 0
147 -144 -146 0
147 144 146 0
-147 -144 146 0
-147 144 -146 0
-148 140 0
-148 147 0
148 -140 -147 0
149 141 0
-149 -141 0
-150 149 0
-150 143 0
150 -149 -143 0
-151 149 0
-151 145 0
151 -149 -145 0
152 -150 -151 0
152 150 151 0
-152 -150 151 0
-152 150 -151 0
-153 148 0
-153 152 0
153 -148 -152 0
154 -56 0
154 -153 0
-154 56 153 0
154 0
